Gurobi Optimizer version 9.1.2 build v9.1.2rc0 (linux64)
Thread count: 36 physical cores, 72 logical processors, using up to 32 threads
Optimize a model with 12 rows, 57 columns and 590 nonzeros
Model fingerprint: 0xf32eec78
Model has 47 quadratic constraints
Coefficient statistics:
  Matrix range     [2e-05, 3e+00]
  QMatrix range    [1e+00, 1e+00]
  QLMatrix range   [1e+00, 1e+00]
  Objective range  [8e-03, 7e-01]
  Bounds range     [1e+00, 1e+00]
  RHS range        [1e+00, 1e+00]
Presolve removed 9 rows and 0 columns

Continuous model is non-convex -- solving as a MIP.

Presolve removed 9 rows and 0 columns
Presolve time: 0.00s
Presolved: 189 rows, 57 columns, 443 nonzeros
Presolved model has 47 bilinear constraint(s)
Variable types: 57 continuous, 0 integer (0 binary)

Root relaxation: objective -1.743721e+00, 44 iterations, 0.00 seconds

    Nodes    |    Current Node    |     Objective Bounds      |     Work
 Expl Unexpl |  Obj  Depth IntInf | Incumbent    BestBd   Gap | It/Node Time

     0     0   -1.74372    0   38          -   -1.74372      -     -    0s
H    0     0                       0.6147548   -1.74372   384%     -    0s
     0     0   -1.64739    0    1    0.61475   -1.64739   368%     -    0s
H    0     0                      -1.6450460   -1.64739  0.14%     -    0s
     0     0     cutoff    0        -1.64505   -1.64505  0.00%     -    0s

Cutting planes:
  RLT: 25
  BQP: 3

Explored 1 nodes (76 simplex iterations) in 0.01 seconds
Thread count was 32 (of 72 available processors)

Solution count 2: -1.64505 0.614755 
No other solutions better than -1.64505

Optimal solution found (tolerance 1.00e-04)
Best objective -1.645045978473e+00, best bound -1.645045978473e+00, gap 0.0000%

User-callback calls 78, time in user-callback 0.00 sec
Gurobi Optimizer version 9.1.2 build v9.1.2rc0 (linux64)
Thread count: 36 physical cores, 72 logical processors, using up to 32 threads
Optimize a model with 360 rows, 572 columns and 2212 nonzeros
Model fingerprint: 0x990bd3e3
Model has 261 quadratic constraints
Coefficient statistics:
  Matrix range     [4e-04, 8e+00]
  QMatrix range    [1e+00, 1e+00]
  QLMatrix range   [1e+00, 1e+00]
  Objective range  [4e-02, 8e+00]
  Bounds range     [1e+00, 8e+00]
  RHS range        [1e+00, 8e+00]
Presolve removed 7 rows and 2 columns

Continuous model is non-convex -- solving as a MIP.

Presolve removed 49 rows and 43 columns
Presolve time: 0.00s
Presolved: 1355 rows, 529 columns, 4066 nonzeros
Presolved model has 261 bilinear constraint(s)
Variable types: 529 continuous, 0 integer (0 binary)

Root relaxation: objective -6.448256e+02, 287 iterations, 0.00 seconds

    Nodes    |    Current Node    |     Objective Bounds      |     Work
 Expl Unexpl |  Obj  Depth IntInf | Incumbent    BestBd   Gap | It/Node Time

     0     0 -644.82563    0   47          - -644.82563      -     -    0s
     0     0 -644.57065    0   43          - -644.57065      -     -    0s
     0     0 -644.57065    0   43          - -644.57065      -     -    0s
     0     2 -644.57065    0   43          - -644.57065      -     -    0s
* 3951  3960              77    -614.4416777 -630.44207  2.60%   4.3    0s
* 4733  4556              78    -614.4416853 -629.99675  2.53%   3.9    0s
H 4762  2588                    -622.9173948 -629.99675  1.14%   3.9    0s
H 4819  2588                    -624.3847603 -629.99675  0.90%   3.9    0s
H 5553  2588                    -624.6424577 -629.99675  0.86%   3.6    0s
* 6673  2259              91    -624.6634620 -629.99675  0.85%   3.6    0s
* 6678  2259              94    -624.8533738 -629.99675  0.82%   3.6    0s
*14158  2249              82    -624.8547280 -629.99675  0.82%   4.5    1s
*14160  2249              81    -624.8547365 -629.99675  0.82%   4.5    1s
H14452  2338                    -624.9030181 -629.99675  0.82%   4.5    1s
*14503  2243              88    -624.9695594 -629.99675  0.80%   4.5    1s
*31550  6202             116    -624.9707459 -626.11969  0.18%   4.5    3s
H32132  6027                    -625.0258811 -626.11609  0.17%   4.5    3s
*38238  8288             122    -625.0287302 -626.00380  0.16%   4.3    3s
*38661  8176             109    -625.0389472 -626.00380  0.15%   4.3    3s
*38662  8176             110    -625.0389474 -626.00380  0.15%   4.3    3s
*38665  8176             111    -625.0389500 -626.00380  0.15%   4.3    3s
*39680  8285             123    -625.0415714 -625.98481  0.15%   4.3    3s
*39682  8279             124    -625.0417191 -625.98481  0.15%   4.3    3s
*43539  9089              98    -625.0470369 -625.93900  0.14%   4.3    4s
*46766 10448              99    -625.0662022 -625.93900  0.14%   4.2    4s
 55836 13088     cutoff   48      -625.06620 -625.87748  0.13%   4.2    5s
*70839 16299              82    -625.0845456 -625.79680  0.11%   4.2    5s
*139480 26429             107    -625.0920945 -625.64541  0.09%   4.2    9s
 155201 28953 -625.12113   55   28 -625.09209 -625.61898  0.08%   4.2   10s
*189982 31940             111    -625.0950645 -625.57392  0.08%   4.2   12s
 246537 35552     cutoff   54      -625.09506 -625.51276  0.07%   4.3   15s
*286861 37192              95    -625.0972288 -625.47769  0.06%   4.4   17s
*299712 37116             122    -625.1051823 -625.46798  0.06%   4.4   17s
 337986 37169 -625.23149   47   28 -625.10518 -625.43894  0.05%   4.4   20s
 429402 35496     cutoff   54      -625.10518 -625.38038  0.04%   4.6   25s
 520823 30717     cutoff   51      -625.10518 -625.32085  0.03%   4.6   30s
 617353 18006     cutoff   46      -625.10518 -625.22524  0.02%   4.7   35s

Explored 661206 nodes (3095528 simplex iterations) in 37.31 seconds
Thread count was 32 (of 72 available processors)

Solution count 10: -625.105 -625.097 -625.095 ... -625.039

Optimal solution found (tolerance 1.00e-04)
Best objective -6.251051823241e+02, best bound -6.251641958896e+02, gap 0.0094%

User-callback calls 1323803, time in user-callback 0.26 sec



objective value: -625.1051823240946
objective bound: -625.1641958896303
w_opt: 1-dimensional DenseAxisArray{Float64,1,...} with index sets:
    Dimension 1, [(25, 1, 2), (25, 1, 1), (25, 1, 14), (20, 1, 2), (20, 1, 1), (20, 1, 14), (1, 1, 2), (1, 1, 1), (1, 1, 14), (2, 1, 2)  …  (20, 15, 23), (20, 15, 3), (8, 15, 30), (8, 15, 29), (8, 15, 23), (8, 15, 3), (2, 15, 30), (2, 15, 29), (2, 15, 23), (2, 15, 3)]
And data, a 261-element Vector{Float64}:
 1.2190274514932318
 1.4630592744582558
 0.0
 0.7809725485067682
 0.9373128427824715
 0.0
 0.0
 0.0
 0.0
 0.0
 0.0
 0.0
 0.0
 0.0
 0.0
 0.0
 2.0
 0.0
 0.0
 1.0
 0.0
 0.0
 0.0
 0.0
 0.0
 0.0
 0.0
 0.0
 0.0
 0.8335393411639791
 0.37748709384469104
 0.0
 0.0
 0.0
 0.0
 4.166460658836021
 1.886880523268906
 0.0
 0.0
 0.0
 0.0
 0.0
 0.0
 0.07255023486053665
 0.19814871822184035
 0.0
 0.0
 0.0
 0.0
 0.9705851127596701
 2.6508526994709234
 0.0
 0.0
 0.0
 0.0
 0.0
 0.0
 0.0
 0.0
 1.7798272596997127
 1.0
 0.0
 0.0
 0.0
 0.0
 0.0
 0.0
 0.0
 0.0
 0.0
 0.0
 0.0
 0.0
 0.0
 0.44618706341475733
 1.3385611902442722
 0.0
 0.4522831152462268
 1.3568493457386799
 0.0
 0.0
 0.0
 0.0
 0.0
 0.0
 0.0
 0.0
 0.0
 0.0
 0.0
 0.0
 0.0
 1.101529821339016
 3.304589464017048
 0.0
 0.0
 0.0
 0.0
 0.0
 0.0
 0.0
 2.0
 0.9940975516918202
 0.005902448308179764
 0.0
 0.0
 0.0
 0.0
 0.0
 0.0
 0.0
 0.0
 0.0
 0.0
 0.0
 0.0
 0.0
 0.0
 5.554118223549341
 1.85137451560389
 0.0
 0.0
 0.0
 0.4458802694995123
 0.148626991347257
 0.0
 0.0
 0.0
 0.0
 0.0
 0.0
 0.0
 0.0
 0.0
 0.0
 0.0
 0.0
 0.0
 0.0
 0.0
 0.0
 0.0
 0.0
 0.0
 0.0
 0.0
 0.0
 0.3120093187891857
 0.0
 0.0
 0.0
 0.11530492473282775
 0.0
 0.7939116926767289
 0.39695584633836445
 0.0
 0.0
 1.206088307323271
 0.6030441536616356
 0.0
 0.0
 0.0
 0.0
 0.0
 0.0
 0.0
 0.0
 0.0
 0.0
 0.0
 0.0
 0.0
 0.0
 1.4689382102278072
 0.0
 0.0
 0.0
 0.3800647144161031
 0.0
 0.0
 0.0
 0.0
 0.0
 0.0
 0.0
 0.0
 0.0
 0.0
 0.0
 0.0
 0.0
 0.0
 0.0
 0.0
 1.6199352855838969
 0.9998447198071565
 0.3802199946089466
 0.0
 0.0
 0.0
 0.0
 0.0
 0.0
 0.0
 0.0
 0.0
 1.3481673382264352
 0.6740836532016643
 0.0
 0.6518326617735648
 0.32591601593608466
 0.0
 0.0
 0.0
 0.0
 0.0
 0.0
 0.0
 0.0
 0.0
 0.0
 0.0
 0.0
 0.0
 0.0
 0.31044536516315496
 0.6719321981803854
 0.0
 0.0
 0.0
 0.0
 0.0
 0.0
 0.0
 0.0
 0.0
 0.0
 0.0
 0.0
 0.0
 0.0
 0.0
 0.0
 0.0
 0.0
 0.0
 0.0
 0.0
 0.0
 0.0
 0.0
 0.0
 0.0
 0.0
 0.0
 0.0
 0.0
 0.9778365989817925
 3.3554123882774562
 0.0
 1.0
x_ij_opt: 1-dimensional DenseAxisArray{Float64,1,...} with index sets:
    Dimension 1, [(43, 30), (43, 22), (43, 6), (44, 22), (45, 30), (45, 29), (45, 28), (45, 24), (45, 23), (40, 29)  …  (5, 7), (5, 14), (6, 4), (6, 3), (1, 14), (1, 10), (1, 23), (1, 1), (3, 2), (3, 1)]
And data, a 116-element Vector{Float64}:
 0.0
 0.5310617897721928
 1.4054927391532306
 0.0
 1.0221634010182075
 0.0
 1.689554634836845
 0.0
 0.0
 0.0
 0.0
 0.0
 0.0
 0.0
 0.0
 0.0
 0.0
 0.0
 0.29433680651070304
 0.0
 0.0
 0.0
 0.0
 0.0
 0.0
 0.0
 0.0
 2.0
 0.0
 0.0
 0.0
 0.0
 0.0
 0.0
 0.0
 0.0
 0.0
 0.0
 0.0
 0.0
 0.0
 0.0
 0.0
 0.5945072608467694
 0.0
 0.0
 0.0
 0.0
 0.0
 0.0
 0.0
 0.0
 0.0
 0.0
 0.0
 1.1509970753560896
 0.0
 1.5069511469789632e-6
 0.005902448308179764
 1.5726857564779866
 0.0
 0.0
 0.0
 0.0
 6.0
 0.0
 0.0
 0.0
 0.0
 0.705663193489297
 0.0
 0.0
 0.0
 0.0
 0.0
 0.0
 0.32806780181961426
 0.9568646523797932
 0.0
 0.0
 0.0
 0.0
 0.0
 0.0
 0.0
 0.0
 0.0
 0.22017274030028736
 0.0
 0.0
 0.0
 0.0
 0.0
 0.0
 0.0
 0.0
 0.0
 3.3086225104117517e-7
 0.0
 0.0
 0.0
 0.0
 0.0
 0.0
 0.0
 0.0
 0.0
 0.0
 0.0
 0.0
 0.0
 0.0
 0.0001552801928434988
 3.593725434451093
 0.0
 0.0
x_il_opt: 1-dimensional DenseAxisArray{Float64,1,...} with index sets:
    Dimension 1, [(43, 15), (43, 14), (44, 15), (44, 13), (44, 3), (40, 14), (40, 2), (41, 14), (42, 6), (37, 13)  …  (4, 13), (5, 2), (5, 7), (5, 9), (6, 11), (1, 1), (1, 6), (1, 3), (2, 1), (2, 15)]
And data, a 71-element Vector{Float64}:
 0.0
 0.0
 0.0
 2.0222509914280993
 1.2110264350086701
 0.9823775633435403
 0.0
 0.0
 0.0
 0.9777486777096495
 0.0
 3.0
 0.0
 0.0
 1.7847482536590296
 0.0
 0.0
 0.0
 7.405492739153231
 0.0
 0.270698953082377
 0.0
 3.0
 1.1908675390150933
 1.8091324609849067
 0.0
 0.5945072608467693
 0.0
 1.8490029246439104
 0.3120093187891857
 2.6820867259514873
 0.0
 0.0
 0.0
 0.0
 0.0
 0.0
 0.0
 1.7182853912892397
 0.0
 0.0
 0.0
 2.7798272596997124
 0.0
 0.0
 1.8091324609849067
 0.0
 3.0
 0.0
 0.0
 0.0
 0.0
 0.0
 0.0
 3.6214378122305932
 0.0
 0.0
 6.053341182104927
 0.0
 0.0
 0.0
 0.0
 0.0
 0.0
 0.11530492473282775
 0.0
 0.0
 4.406119285356064
 0.0
 0.0
 5.333248987259249
x_lj_opt: 1-dimensional DenseAxisArray{Float64,1,...} with index sets:
    Dimension 1, [(15, 30), (15, 29), (15, 23), (15, 3), (14, 28), (14, 27), (14, 10), (14, 24), (13, 26), (13, 25)  …  (3, 6), (3, 5), (3, 29), (2, 4), (2, 3), (2, 1), (2, 5), (1, 2), (1, 1), (1, 14)]
And data, a 53-element Vector{Float64}:
 0.9778365989817925
 3.3554123882774562
 0.0
 1.0
 0.31044536516315496
 0.6719321981803857
 0.0
 0.0
 2.0
 0.999999669137749
 0.0
 1.6199352855838969
 0.9998447198071565
 0.3802199946089466
 1.4689382102278072
 0.0
 0.0
 0.0
 0.3800647144161031
 0.0
 0.0
 2.0
 1.0
 0.4273142435220134
 0.0
 0.0
 5.999998493048853
 2.0000015069511465
 0.0
 0.0
 2.0
 0.9940975516918202
 0.005902448308179764
 2.0
 6.0
 0.0
 1.7798272596997127
 1.0
 0.0
 0.0
 1.0431353476202068
 2.849001417692764
 0.0
 0.0
 5.0
 2.264367617113597
 2.0
 0.0
 0.0
 1.0
 2.0
 2.4003721172407273
 0.0
q_opt: 1-dimensional DenseAxisArray{Float64,1,...} with index sets:
    Dimension 1, [(43, 15), (43, 14), (44, 15), (44, 13), (44, 3), (40, 14), (40, 2), (41, 14), (42, 6), (37, 13)  …  (4, 13), (5, 2), (5, 7), (5, 9), (6, 11), (1, 1), (1, 6), (1, 3), (2, 1), (2, 15)]
And data, a 71-element Vector{Float64}:
  0.0
  0.0
  0.0
  0.6740836691132175
  0.1667078292269082
  0.9999999999999997
  0.0
  0.0
  0.0
  0.32591633088678246
  0.0
  1.0
  0.0
  0.0
  0.22309353170737867
  0.0
  0.0
  0.0
  0.9256865923941539
  0.0
  0.06955018470161704
  0.0
  1.0
  0.3969559139158974
  0.2261415576231134
 -6.757753295838498e-8
  0.07431340760584616
  0.0
  1.0
  0.7301641065393202
  0.6095137257466159
  0.0
  0.0
  0.0
  0.0
  0.0
  0.0
  0.0
  0.3904862742533841
  0.0
  0.0
  0.0
  1.0
  0.0
  0.0
  0.6030441536616356
  0.0
  1.0
  0.0
  0.0
  0.0
  0.0
  0.0
  0.0
  0.930449815298383
  0.0
  0.0
  0.8332921707730918
  0.0
  0.0
  0.0
  0.0
  0.0
  0.0
  0.2698358934606798
  0.0
  0.0
  0.550764910669508
  0.0
  0.0
  1.0
GUROBI solution time: 37.306654930114746



